Grasp exp. instance_n_25_m_10_id_1.lp tipoLifted 0 szPool 5 nIteration 100 alpha 0.4 
Academic license - for non-commercial use only
Read LP format model from file ../input/instancesGenerated/instance_n_25_m_10_id_1.lp
Reading time = 0.00 seconds
: 10 rows, 25 columns, 122 nonzeros
Optimize a model with 10 rows, 25 columns and 122 nonzeros
Variable types: 0 continuous, 25 integer (25 binary)
Coefficient statistics:
  Matrix range     [1e+00, 1e+01]
  Objective range  [1e+00, 1e+01]
  Bounds range     [1e+00, 1e+00]
  RHS range        [2e+01, 4e+01]
Found heuristic solution: objective 77.0000000

Explored 0 nodes (0 simplex iterations) in 0.00 seconds
Thread count was 1 (of 8 available processors)

Solution count 1: 77 
No other solutions better than 0

Solution limit reached
Best objective 7.700000000000e+01, best bound -, gap -
C_1:	 7.00 x_2  = 1.000000 + 1.00 x_4  = 1.000000 + 6.00 x_5  = 0.000000 + 1.00 x_7  = 1.000000 + 3.00 x_9  = 1.000000 + 7.00 x_10  = 0.464903 + 7.00 x_12  = 0.000000 + 1.00 x_15  = 1.000000 + 10.00 x_17  = 0.528138 + 8.00 x_18  = 0.093163 + 8.00 x_25  = 0.839873 <= 29.00
C_2:	 1.00 x_3  = 1.000000 + 1.00 x_6  = 0.000000 + 7.00 x_8  = 0.000000 + 3.00 x_9  = 1.000000 + 8.00 x_10  = 0.464903 + 8.00 x_16  = 0.688537 + 9.00 x_18  = 0.093163 + 6.00 x_19  = 0.326043 + 2.00 x_20  = 1.000000 + 9.00 x_23  = 0.806529 + 3.00 x_24  = 0.000000 + 8.00 x_25  = 0.839873 <= 32.00
C_3:	 9.00 x_1  = 0.055599 + 4.00 x_2  = 1.000000 + 1.00 x_3  = 1.000000 + 1.00 x_8  = 0.000000 + 4.00 x_9  = 1.000000 + 6.00 x_12  = 0.000000 + 3.00 x_14  = 0.000000 + 2.00 x_20  = 1.000000 + 7.00 x_21  = 0.000000 + 1.00 x_22  = 1.000000 + 7.00 x_23  = 0.806529 + 7.00 x_25  = 0.839873 <= 26.00
C_4:	 6.00 x_4  = 1.000000 + 2.00 x_6  = 0.000000 + 2.00 x_7  = 1.000000 + 5.00 x_10  = 0.464903 + 2.00 x_12  = 0.000000 + 4.00 x_17  = 0.528138 + 4.00 x_19  = 0.326043 + 8.00 x_21  = 0.000000 + 9.00 x_23  = 0.806529 <= 21.00
C_5:	 9.00 x_1  = 0.055599 + 5.00 x_2  = 1.000000 + 6.00 x_7  = 1.000000 + 2.00 x_9  = 1.000000 + 8.00 x_10  = 0.464903 + 10.00 x_11  = 1.000000 + 5.00 x_12  = 0.000000 + 6.00 x_13  = 1.000000 + 7.00 x_14  = 0.000000 + 1.00 x_15  = 1.000000 + 6.00 x_18  = 0.093163 + 8.00 x_19  = 0.326043 + 2.00 x_22  = 1.000000 + 2.00 x_23  = 0.806529 + 6.00 x_24  = 0.000000 <= 41.00
C_6:	 2.00 x_2  = 1.000000 + 6.00 x_5  = 0.000000 + 7.00 x_6  = 0.000000 + 6.00 x_7  = 1.000000 + 4.00 x_9  = 1.000000 + 8.00 x_12  = 0.000000 + 9.00 x_17  = 0.528138 + 4.00 x_21  = 0.000000 + 6.00 x_22  = 1.000000 + 2.00 x_23  = 0.806529 <= 27.00
C_7:	 8.00 x_1  = 0.055599 + 5.00 x_3  = 1.000000 + 8.00 x_8  = 0.000000 + 5.00 x_9  = 1.000000 + 7.00 x_10  = 0.464903 + 1.00 x_15  = 1.000000 + 4.00 x_16  = 0.688537 + 10.00 x_17  = 0.528138 + 1.00 x_20  = 1.000000 + 6.00 x_21  = 0.000000 + 5.00 x_22  = 1.000000 + 4.00 x_23  = 0.806529 + 4.00 x_24  = 0.000000 + 6.00 x_25  = 0.839873 <= 37.00
C_8:	 2.00 x_3  = 1.000000 + 10.00 x_5  = 0.000000 + 1.00 x_7  = 1.000000 + 3.00 x_8  = 0.000000 + 10.00 x_9  = 1.000000 + 9.00 x_11  = 1.000000 + 3.00 x_12  = 0.000000 + 8.00 x_13  = 1.000000 + 5.00 x_14  = 0.000000 + 5.00 x_16  = 0.688537 + 1.00 x_17  = 0.528138 + 6.00 x_18  = 0.093163 + 4.00 x_19  = 0.326043 + 1.00 x_20  = 1.000000 + 10.00 x_21  = 0.000000 + 1.00 x_23  = 0.806529 + 4.00 x_25  = 0.839873 <= 41.00
C_9:	 7.00 x_3  = 1.000000 + 3.00 x_5  = 0.000000 + 8.00 x_9  = 1.000000 + 4.00 x_11  = 1.000000 + 2.00 x_15  = 1.000000 + 3.00 x_16  = 0.688537 + 9.00 x_19  = 0.326043 + 10.00 x_21  = 0.000000 + 7.00 x_24  = 0.000000 <= 26.00
C_10:	 5.00 x_1  = 0.055599 + 4.00 x_2  = 1.000000 + 4.00 x_5  = 0.000000 + 4.00 x_6  = 0.000000 + 4.00 x_7  = 1.000000 + 10.00 x_12  = 0.000000 + 10.00 x_13  = 1.000000 + 1.00 x_14  = 0.000000 + 10.00 x_15  = 1.000000 + 2.00 x_16  = 0.688537 + 5.00 x_18  = 0.093163 + 6.00 x_21  = 0.000000 + 7.00 x_25  = 0.839873 <= 36.00
Solution initial: 95.445434 
Number Constraints Used in Cover:10
GRASP Method!
Number cuts repeat: 0
value: 95.445434
Number Constraints Used in Cover:20
GRASP Method!
Number cuts repeat: 0
value: 95.445434
Number Constraints Used in Cover:29
GRASP Method!
Number cuts repeat: 0
value: 95.445434
Number Constraints Used in Cover:34
GRASP Method!
Number cuts repeat: 0
value: 95.445434
Number Constraints Used in Cover:39
GRASP Method!
Number cuts repeat: 0
value: 95.445434
Number Constraints Used in Cover:44
GRASP Method!
Number cuts repeat: 0
value: 95.445434
Number Constraints Used in Cover:46
GRASP Method!
Number cuts repeat: 0
value: 95.445434
Number Constraints Used in Cover:57
GRASP Method!
Number cuts repeat: 0
value: 95.445434
Number Constraints Used in Cover:62
GRASP Method!
Number cuts repeat: 0
value: 95.432580
Number Constraints Used in Cover:70
GRASP Method!
Number cuts repeat: 0
value: 95.432580
Number Constraints Used in Cover:84
GRASP Method!
Number cuts repeat: 0
value: 95.432580
Number Constraints Used in Cover:101
GRASP Method!
Number cuts repeat: 0
value: 95.430447
Number Constraints Used in Cover:119
GRASP Method!
Number cuts repeat: 0
value: 95.430447
Number Constraints Used in Cover:149
GRASP Method!
Number cuts repeat: 0
value: 95.430447
Number Constraints Used in Cover:164
GRASP Method!
Number cuts repeat: 0
value: 95.430447
Number Constraints Used in Cover:178
GRASP Method!
Number cuts repeat: 0
value: 95.430447
Number Constraints Used in Cover:191
GRASP Method!
Number cuts repeat: 0
value: 95.430447
Number Constraints Used in Cover:206
GRASP Method!
Number cuts repeat: 0
value: 95.430447
Number Constraints Used in Cover:218
GRASP Method!
Number cuts repeat: 0
value: 95.430447
Number Constraints Used in Cover:230
GRASP Method!
Number cuts repeat: 0
value: 95.430447
Number Constraints Used in Cover:246
GRASP Method!
Number cuts repeat: 0
value: 95.430447
Number Constraints Used in Cover:251
GRASP Method!
Number cuts repeat: 0
value: 95.188653
Number Constraints Used in Cover:260
GRASP Method!
Number cuts repeat: 0
value: 95.188653
Number Constraints Used in Cover:269
GRASP Method!
Number cuts repeat: 0
value: 95.017834
Number Constraints Used in Cover:283
GRASP Method!
Number cuts repeat: 0
value: 95.017834
Number Constraints Used in Cover:292
GRASP Method!
Number cuts repeat: 0
value: 95.017834
Number Constraints Used in Cover:309
GRASP Method!
Number cuts repeat: 0
value: 95.017834
Number Constraints Used in Cover:314
GRASP Method!
Number cuts repeat: 0
value: 95.017834
Number Constraints Used in Cover:324
GRASP Method!
Number cuts repeat: 0
value: 95.017834
Number Constraints Used in Cover:329
GRASP Method!
Number cuts repeat: 0
value: 95.017834
Number Constraints Used in Cover:347
GRASP Method!
Number cuts repeat: 0
value: 95.017834
Number Constraints Used in Cover:358
GRASP Method!
Number cuts repeat: 0
value: 95.017834
Number Constraints Used in Cover:373
GRASP Method!
Number cuts repeat: 0
value: 95.017834
Number Constraints Used in Cover:382
GRASP Method!
Number cuts repeat: 0
value: 95.017834
Number Constraints Used in Cover:394
GRASP Method!
Number cuts repeat: 0
value: 95.017834
Number Constraints Used in Cover:402
GRASP Method!
Number cuts repeat: 0
value: 95.017834
Number Constraints Used in Cover:412
GRASP Method!
Number cuts repeat: 0
value: 95.017834
Number Constraints Used in Cover:419
GRASP Method!
Number cuts repeat: 0
value: 95.017834
Number Constraints Used in Cover:435
GRASP Method!
Number cuts repeat: 0
value: 95.017834
Number Constraints Used in Cover:442
GRASP Method!
Number cuts repeat: 0
value: 95.017834
Number Constraints Used in Cover:453
GRASP Method!
Number cuts repeat: 0
value: 95.017834
Number Constraints Used in Cover:464
GRASP Method!
Number cuts repeat: 0
value: 95.017834
Number Constraints Used in Cover:473
GRASP Method!
Number cuts repeat: 0
value: 95.017834
Number Constraints Used in Cover:493
GRASP Method!
Number cuts repeat: 0
value: 95.017834
Number Constraints Used in Cover:506
GRASP Method!
Number cuts repeat: 0
value: 95.017834
Number Constraints Used in Cover:510
GRASP Method!
Number cuts repeat: 0
value: 95.017834
Number Constraints Used in Cover:520
GRASP Method!
Number cuts repeat: 0
value: 95.017834
Number Constraints Used in Cover:530
GRASP Method!
Number cuts repeat: 0
value: 95.017834
Number Constraints Used in Cover:539
GRASP Method!
Number cuts repeat: 0
value: 95.017834
Number Constraints Used in Cover:551
GRASP Method!
Number cuts repeat: 0
value: 95.017834
Number Constraints Used in Cover:557
GRASP Method!
Number cuts repeat: 0
value: 95.017834
Number Constraints Used in Cover:559
GRASP Method!
Number cuts repeat: 0
value: 95.017834
Number Constraints Used in Cover:562
GRASP Method!
Number cuts repeat: 0
value: 95.017834
Number Constraints Used in Cover:573
GRASP Method!
Number cuts repeat: 0
value: 95.017834
Number Constraints Used in Cover:587
GRASP Method!
Number cuts repeat: 0
value: 95.017834
Number Constraints Used in Cover:608
GRASP Method!
Number cuts repeat: 0
value: 95.017834
Number Constraints Used in Cover:614
GRASP Method!
Number cuts repeat: 0
value: 95.017834
Number Constraints Used in Cover:625
GRASP Method!
Number cuts repeat: 0
value: 95.017834
Number Constraints Used in Cover:634
GRASP Method!
Number cuts repeat: 0
value: 95.017834
Number Constraints Used in Cover:647
GRASP Method!
Number cuts repeat: 0
value: 95.017834
Number Constraints Used in Cover:661
GRASP Method!
Number cuts repeat: 0
value: 95.017834
Number Constraints Used in Cover:676
GRASP Method!
Number cuts repeat: 0
value: 95.017834
Number Constraints Used in Cover:687
GRASP Method!
Number cuts repeat: 0
value: 95.017834
Number Constraints Used in Cover:692
GRASP Method!
Number cuts repeat: 0
value: 95.017834
Number Constraints Used in Cover:700
GRASP Method!
Number cuts repeat: 0
value: 95.017834
Number Constraints Used in Cover:700
GRASP Method!
Number cuts repeat: 0
value: 95.017834
Number Constraints Used in Cover:707
GRASP Method!
Number cuts repeat: 0
value: 95.017834
Number Constraints Used in Cover:713
GRASP Method!
Number cuts repeat: 0
value: 95.017834
Number Constraints Used in Cover:721
GRASP Method!
Number cuts repeat: 0
value: 95.017834
Number Constraints Used in Cover:726
GRASP Method!
Number cuts repeat: 0
value: 95.017834
Number Constraints Used in Cover:742
GRASP Method!
Number cuts repeat: 0
value: 95.017834
Number Constraints Used in Cover:749
GRASP Method!
Number cuts repeat: 0
value: 95.017834
Number Constraints Used in Cover:763
GRASP Method!
Number cuts repeat: 0
value: 95.017834
Number Constraints Used in Cover:766
GRASP Method!
Number cuts repeat: 0
value: 95.017834
Number Constraints Used in Cover:771
GRASP Method!
Number cuts repeat: 0
value: 95.017834
Number Constraints Used in Cover:777
GRASP Method!
Number cuts repeat: 0
value: 95.017834
Number Constraints Used in Cover:782
GRASP Method!
Number cuts repeat: 0
value: 95.017834
Number Constraints Used in Cover:789
GRASP Method!
Number cuts repeat: 0
value: 95.017834
Number Constraints Used in Cover:794
GRASP Method!
Number cuts repeat: 0
value: 95.017834
Number Constraints Used in Cover:797
GRASP Method!
Number cuts repeat: 0
value: 95.017834
Number Constraints Used in Cover:807
GRASP Method!
Number cuts repeat: 0
value: 95.017834
Number Constraints Used in Cover:813
GRASP Method!
Number cuts repeat: 0
value: 95.017834
Number Constraints Used in Cover:818
GRASP Method!
Number cuts repeat: 0
value: 95.017834
Number Constraints Used in Cover:830
GRASP Method!
Number cuts repeat: 0
value: 95.017834
Number Constraints Used in Cover:835
GRASP Method!
Number cuts repeat: 0
value: 95.017834
Number Constraints Used in Cover:841
GRASP Method!
Number cuts repeat: 0
value: 95.017834
Number Constraints Used in Cover:849
GRASP Method!
Number cuts repeat: 0
value: 95.017834
Number Constraints Used in Cover:856
GRASP Method!
Number cuts repeat: 0
value: 95.017834
Number Constraints Used in Cover:869
GRASP Method!
Number cuts repeat: 0
value: 95.017834
Number Cuts Final: 875
